w = 40;

n = 20;

r2 = array1d(1..2, [3, 3]);

r3 = array1d(1..2, [3, 4]);

r4 = array1d(1..2, [3, 5]);

r5 = array1d(1..2, [3, 6]);

r6 = array1d(1..2, [3, 7]);

r7 = array1d(1..2, [3, 8]);

r8 = array1d(1..2, [3, 9]);

r9 = array1d(1..2, [3, 10]);

r10 = array1d(1..2, [3, 12]);

r11 = array1d(1..2, [3, 16]);

r12 = array1d(1..2, [3, 40]);

r13 = array1d(1..2, [4, 4]);

r14 = array1d(1..2, [4, 14]);

r15 = array1d(1..2, [4, 22]);

r16 = array1d(1..2, [5, 3]);

r17 = array1d(1..2, [5, 4]);

r18 = array1d(1..2, [5, 8]);

r19 = array1d(1..2, [5, 12]);

r20 = array1d(1..2, [5, 13]);

r21 = array1d(1..2, [22, 40]);

